Version identifier: 20.1.0.0 | 2020-11-10 | 9bedb6d68
Tried aggregator 3 times.
MIP Presolve eliminated 685 rows and 414 columns.
MIP Presolve modified 1294 coefficients.
Aggregator did 80 substitutions.
Reduced MIP has 516 rows, 413 columns, and 1636 nonzeros.
Reduced MIP has 102 binaries, 311 generals, 0 SOSs, and 0 indicators.
Presolve time = 0.01 sec. (3.30 ticks)
Found incumbent of value 507.000000 after 0.01 sec. (4.80 ticks)
Probing fixed 15 vars, tightened 110 bounds.
Probing time = 0.00 sec. (0.35 ticks)
Tried aggregator 1 time.
Detecting symmetries...
MIP Presolve eliminated 225 rows and 15 columns.
MIP Presolve modified 25 coefficients.
Reduced MIP has 291 rows, 398 columns, and 946 nonzeros.
Reduced MIP has 155 binaries, 243 generals, 0 SOSs, and 0 indicators.
Presolve time = 0.00 sec. (1.06 ticks)
Probing time = 0.00 sec. (0.09 ticks)
Clique table members: 31.
MIP emphasis: balance optimality and feasibility.
MIP search method: dynamic search.
Parallel mode: deterministic, using up to 24 threads.
Root relaxation solution time = 0.00 sec. (0.68 ticks)

        Nodes                                         Cuts/
   Node  Left     Objective  IInf  Best Integer    Best Bound    ItCnt     Gap

*     0+    0                          507.0000        0.0000           100.00%
*     0+    0                           17.0000        0.0000           100.00%
      0     0        0.2000    19       17.0000        0.2000       98   98.82%
*     0+    0                            3.0000        0.2000            93.33%
      0     0        1.0474    93        3.0000      Cuts: 25      198   65.09%
      0     0        cutoff              3.0000                    198    0.00%
Elapsed time = 0.34 sec. (12.57 ticks, tree = 0.01 MB, solutions = 3)

Implied bound cuts applied:  2
Mixed integer rounding cuts applied:  2
Zero-half cuts applied:  5
Lift and project cuts applied:  1
Gomory fractional cuts applied:  2

Root node processing (before b&c):
  Real time             =    0.34 sec. (12.62 ticks)
Parallel b&c, 24 threads:
  Real time             =    0.00 sec. (0.00 ticks)
  Sync time (average)   =    0.00 sec.
  Wait time (average)   =    0.00 sec.
                          ------------
Total (root+branch&cut) =    0.34 sec. (12.62 ticks)

Solution status = Optimal
Solution LB = 3
Solution UB = 3
Runtime = 0.347586 seconds
	Command being timed: "/home/min/git_repos/CS598MEBProject/CNT-ILP/build/cnt -s 2 ./output/k6_n15/simC_c1_k6_n15_u1_s2_del02.input-left.cnp"
	User time (seconds): 6.29
	System time (seconds): 0.04
	Percent of CPU this job got: 1653%
	Elapsed (wall clock) time (h:mm:ss or m:ss): 0:00.38
	Average shared text size (kbytes): 0
	Average unshared data size (kbytes): 0
	Average stack size (kbytes): 0
	Average total size (kbytes): 0
	Maximum resident set size (kbytes): 45520
	Average resident set size (kbytes): 0
	Major (requiring I/O) page faults: 0
	Minor (reclaiming a frame) page faults: 8227
	Voluntary context switches: 1457
	Involuntary context switches: 1110
	Swaps: 0
	File system inputs: 0
	File system outputs: 16
	Socket messages sent: 0
	Socket messages received: 0
	Signals delivered: 0
	Page size (bytes): 4096
	Exit status: 0
